10
0 543 887 673 264 177 228 171 192 706 
543 0 545 268 71 808 660 109 514 966 
887 545 0 553 655 593 21 470 478 636 
673 268 553 0 23 459 289 573 676 535 
264 71 655 23 0 831 133 8 367 363 
177 808 593 459 831 0 553 92 519 443 
228 660 21 289 133 553 0 110 331 558 
171 109 470 573 8 92 110 0 693 834 
192 514 478 676 367 519 331 693 0 17 
706 966 636 535 363 443 558 834 17 0 
